p tw 512 40960 1 
0 2 
0 3 
0 4 
0 5 
0 6 
0 7 
0 8 
0 9 
0 10 
0 11 
0 12 
0 13 
0 14 
0 15 
0 16 
0 17 
0 18 
0 19 
0 20 
0 21 
0 22 
0 23 
0 24 
0 25 
0 26 
0 27 
0 28 
0 29 
0 30 
0 31 
0 32 
0 33 
0 34 
0 35 
0 36 
0 37 
0 38 
0 39 
0 40 
0 41 
0 42 
0 43 
0 44 
0 45 
0 46 
0 47 
0 48 
0 49 
0 50 
0 51 
0 52 
0 53 
0 54 
0 55 
0 56 
0 57 
0 58 
0 59 
0 60 
0 61 
0 62 
0 63 
0 64 
0 65 
0 66 
0 67 
0 68 
0 69 
0 70 
0 71 
0 72 
0 73 
0 74 
0 75 
0 76 
0 77 
0 78 
0 79 
0 80 
0 81 
0 82 
0 83 
0 84 
0 85 
0 86 
0 87 
0 88 
0 89 
0 90 
0 91 
0 92 
0 93 
0 94 
0 95 
0 96 
0 97 
0 98 
0 99 
0 100 
0 101 
0 102 
0 103 
0 104 
0 105 
0 106 
0 107 
0 108 
0 109 
0 110 
0 111 
0 112 
0 113 
0 114 
0 115 
0 116 
0 117 
0 118 
0 119 
0 120 
0 121 
0 122 
0 123 
0 124 
0 125 
0 126 
0 127 
0 128 
0 129 
0 130 
0 131 
0 132 
0 133 
0 134 
0 135 
0 136 
0 137 
0 138 
0 139 
0 140 
0 141 
0 142 
0 143 
0 144 
0 145 
0 146 
0 147 
0 148 
0 149 
0 150 
0 151 
0 152 
0 153 
0 154 
0 155 
0 156 
0 157 
0 158 
0 159 
0 160 
0 161 
0 162 
0 163 
0 164 
0 165 
0 166 
0 167 
0 168 
0 169 
0 170 
0 171 
0 172 
0 173 
0 174 
0 175 
0 176 
0 177 
0 178 
0 179 
0 180 
0 181 
0 182 
0 183 
0 184 
0 185 
0 186 
0 187 
0 188 
0 189 
0 190 
0 191 
0 192 
0 193 
0 194 
0 195 
0 196 
0 197 
0 198 
0 199 
0 200 
0 201 
0 202 
0 203 
0 204 
0 205 
0 206 
0 207 
0 208 
0 209 
0 210 
0 211 
0 212 
0 213 
0 214 
0 215 
0 216 
0 217 
0 218 
0 219 
0 220 
0 221 
0 222 
0 223 
0 224 
0 225 
0 226 
0 227 
0 228 
0 229 
0 230 
0 231 
0 232 
0 233 
0 234 
0 235 
0 236 
0 237 
0 238 
0 239 
0 240 
0 241 
0 242 
0 243 
0 244 
0 245 
0 246 
0 247 
0 248 
0 249 
0 250 
0 251 
0 252 
0 253 
0 254 
0 255 
0 256 
1 257 
1 258 
1 259 
1 260 
1 261 
1 262 
1 263 
1 264 
1 265 
1 266 
1 267 
1 268 
1 269 
1 270 
1 271 
1 272 
1 273 
1 274 
1 275 
1 276 
1 277 
1 278 
1 279 
1 280 
1 281 
1 282 
1 283 
1 284 
1 285 
1 286 
1 287 
1 288 
1 289 
1 290 
1 291 
1 292 
1 293 
1 294 
1 295 
1 296 
1 297 
1 298 
1 299 
1 300 
1 301 
1 302 
1 303 
1 304 
1 305 
1 306 
1 307 
1 308 
1 309 
1 310 
1 311 
1 312 
1 313 
1 314 
1 315 
1 316 
1 317 
1 318 
1 319 
1 320 
1 321 
1 322 
1 323 
1 324 
1 325 
1 326 
1 327 
1 328 
1 329 
1 330 
1 331 
1 332 
1 333 
1 334 
1 335 
1 336 
1 337 
1 338 
1 339 
1 340 
1 341 
1 342 
1 343 
1 344 
1 345 
1 346 
1 347 
1 348 
1 349 
1 350 
1 351 
1 352 
1 353 
1 354 
1 355 
1 356 
1 357 
1 358 
1 359 
1 360 
1 361 
1 362 
1 363 
1 364 
1 365 
1 366 
1 367 
1 368 
1 369 
1 370 
1 371 
1 372 
1 373 
1 374 
1 375 
1 376 
1 377 
1 378 
1 379 
1 380 
1 381 
1 382 
1 383 
1 384 
1 385 
1 386 
1 387 
1 388 
1 389 
1 390 
1 391 
1 392 
1 393 
1 394 
1 395 
1 396 
1 397 
1 398 
1 399 
1 400 
1 401 
1 402 
1 403 
1 404 
1 405 
1 406 
1 407 
1 408 
1 409 
1 410 
1 411 
1 412 
1 413 
1 414 
1 415 
1 416 
1 417 
1 418 
1 419 
1 420 
1 421 
1 422 
1 423 
1 424 
1 425 
1 426 
1 427 
1 428 
1 429 
1 430 
1 431 
1 432 
1 433 
1 434 
1 435 
1 436 
1 437 
1 438 
1 439 
1 440 
1 441 
1 442 
1 443 
1 444 
1 445 
1 446 
1 447 
1 448 
1 449 
1 450 
1 451 
1 452 
1 453 
1 454 
1 455 
1 456 
1 457 
1 458 
1 459 
1 460 
1 461 
1 462 
1 463 
1 464 
1 465 
1 466 
1 467 
1 468 
1 469 
1 470 
1 471 
1 472 
1 473 
1 474 
1 475 
1 476 
1 477 
1 478 
1 479 
1 480 
1 481 
1 482 
1 483 
1 484 
1 485 
1 486 
1 487 
1 488 
1 489 
1 490 
1 491 
1 492 
1 493 
1 494 
1 495 
1 496 
1 497 
1 498 
1 499 
1 500 
1 501 
1 502 
1 503 
1 504 
1 505 
1 506 
1 507 
1 508 
1 509 
1 510 
1 511 
1 512 
1 284 
1 323 
1 339 
1 349 
1 355 
1 384 
1 389 
1 408 
1 433 
1 446 
1 490 
1 492 
1 493 
1 495 
1 498 
1 510 
2 265 
2 288 
2 297 
2 302 
2 327 
2 329 
2 358 
2 385 
2 386 
2 403 
2 404 
2 413 
2 428 
2 457 
2 458 
2 477 
3 291 
3 311 
3 314 
3 319 
3 325 
3 337 
3 377 
3 380 
3 394 
3 395 
3 411 
3 426 
3 459 
3 468 
3 496 
3 509 
4 284 
4 294 
4 323 
4 339 
4 340 
4 341 
4 349 
4 373 
4 389 
4 431 
4 433 
4 442 
4 446 
4 453 
4 492 
4 498 
5 267 
5 268 
5 287 
5 300 
5 326 
5 347 
5 357 
5 392 
5 398 
5 432 
5 443 
5 451 
5 462 
5 466 
5 483 
5 504 
6 258 
6 260 
6 264 
6 270 
6 296 
6 305 
6 318 
6 320 
6 331 
6 363 
6 374 
6 402 
6 407 
6 420 
6 497 
6 511 
7 257 
7 274 
7 278 
7 336 
7 343 
7 350 
7 353 
7 397 
7 409 
7 435 
7 461 
7 463 
7 473 
7 478 
7 500 
7 506 
8 283 
8 287 
8 306 
8 342 
8 345 
8 347 
8 357 
8 375 
8 398 
8 417 
8 429 
8 432 
8 434 
8 443 
8 462 
8 481 
9 323 
9 340 
9 351 
9 355 
9 384 
9 389 
9 418 
9 433 
9 442 
9 453 
9 456 
9 464 
9 465 
9 482 
9 490 
9 495 
10 291 
10 301 
10 314 
10 317 
10 325 
10 338 
10 364 
10 369 
10 387 
10 391 
10 394 
10 406 
10 411 
10 460 
10 468 
10 512 
11 258 
11 260 
11 264 
11 266 
11 271 
11 296 
11 320 
11 374 
11 388 
11 393 
11 407 
11 414 
11 420 
11 438 
11 447 
11 505 
12 291 
12 301 
12 311 
12 314 
12 325 
12 337 
12 338 
12 346 
12 364 
12 369 
12 377 
12 391 
12 394 
12 395 
12 406 
12 419 
13 291 
13 301 
13 309 
13 311 
13 314 
13 337 
13 338 
13 362 
13 369 
13 377 
13 406 
13 411 
13 426 
13 468 
13 509 
13 512 
14 260 
14 263 
14 305 
14 318 
14 331 
14 383 
14 388 
14 402 
14 407 
14 414 
14 420 
14 421 
14 422 
14 438 
14 439 
14 497 
15 283 
15 306 
15 342 
15 345 
15 347 
15 357 
15 399 
15 417 
15 429 
15 432 
15 434 
15 443 
15 451 
15 462 
15 504 
15 507 
16 260 
16 263 
16 271 
16 295 
16 318 
16 328 
16 374 
16 383 
16 388 
16 402 
16 414 
16 421 
16 422 
16 438 
16 447 
16 505 
17 284 
17 294 
17 322 
17 323 
17 340 
17 355 
17 372 
17 418 
17 431 
17 453 
17 456 
17 464 
17 465 
17 482 
17 490 
17 510 
18 263 
18 266 
18 270 
18 271 
18 328 
18 363 
18 374 
18 383 
18 393 
18 407 
18 421 
18 422 
18 437 
18 438 
18 447 
18 497 
19 272 
19 282 
19 290 
19 303 
19 354 
19 361 
19 379 
19 382 
19 445 
19 469 
19 470 
19 471 
19 476 
19 479 
19 499 
19 501 
20 257 
20 259 
20 274 
20 277 
20 336 
20 343 
20 409 
20 410 
20 435 
20 461 
20 473 
20 478 
20 491 
20 500 
20 503 
20 508 
21 284 
21 294 
21 322 
21 340 
21 349 
21 355 
21 359 
21 372 
21 431 
21 453 
21 456 
21 465 
21 490 
21 492 
21 498 
21 510 
22 264 
22 266 
22 296 
22 305 
22 328 
22 331 
22 363 
22 374 
22 383 
22 402 
22 407 
22 414 
22 422 
22 437 
22 505 
22 511 
23 351 
23 355 
23 359 
23 384 
23 389 
23 433 
23 442 
23 453 
23 456 
23 464 
23 465 
23 482 
23 490 
23 493 
23 495 
23 498 
24 284 
24 294 
24 322 
24 323 
24 339 
24 340 
24 341 
24 349 
24 372 
24 373 
24 408 
24 418 
24 431 
24 446 
24 492 
24 510 
25 309 
25 311 
25 314 
25 337 
25 338 
25 362 
25 364 
25 369 
25 377 
25 395 
25 406 
25 411 
25 416 
25 426 
25 459 
25 468 
26 288 
26 297 
26 302 
26 329 
26 332 
26 344 
26 358 
26 386 
26 401 
26 403 
26 404 
26 405 
26 441 
26 458 
26 480 
26 494 
27 309 
27 315 
27 317 
27 337 
27 380 
27 391 
27 394 
27 406 
27 411 
27 416 
27 459 
27 460 
27 468 
27 496 
27 509 
27 512 
28 291 
28 301 
28 315 
28 325 
28 364 
28 377 
28 380 
28 387 
28 394 
28 406 
28 411 
28 419 
28 426 
28 460 
28 496 
28 512 
29 262 
29 280 
29 292 
29 293 
29 304 
29 307 
29 310 
29 313 
29 316 
29 330 
29 390 
29 412 
29 415 
29 423 
29 425 
29 489 
30 260 
30 264 
30 296 
30 305 
30 318 
30 331 
30 374 
30 383 
30 388 
30 393 
30 407 
30 414 
30 420 
30 422 
30 438 
30 497 
31 339 
31 341 
31 349 
31 351 
31 359 
31 373 
31 384 
31 389 
31 408 
31 433 
31 442 
31 446 
31 492 
31 493 
31 495 
31 498 
32 272 
32 273 
32 303 
32 354 
32 378 
32 379 
32 382 
32 445 
32 467 
32 470 
32 471 
32 476 
32 479 
32 499 
32 501 
32 502 
33 323 
33 340 
33 341 
33 349 
33 351 
33 372 
33 373 
33 389 
33 408 
33 418 
33 431 
33 442 
33 446 
33 465 
33 482 
33 495 
34 323 
34 351 
34 355 
34 372 
34 389 
34 431 
34 442 
34 453 
34 456 
34 464 
34 465 
34 490 
34 492 
34 493 
34 495 
34 498 
35 263 
35 271 
35 295 
35 296 
35 318 
35 320 
35 331 
35 363 
35 374 
35 383 
35 393 
35 414 
35 420 
35 437 
35 438 
35 497 
36 265 
36 286 
36 302 
36 329 
36 332 
36 358 
36 385 
36 403 
36 404 
36 428 
36 441 
36 448 
36 458 
36 477 
36 480 
36 485 
37 262 
37 269 
37 281 
37 292 
37 298 
37 304 
37 310 
37 313 
37 330 
37 368 
37 390 
37 400 
37 412 
37 427 
37 454 
37 488 
38 258 
38 263 
38 266 
38 270 
38 271 
38 295 
38 320 
38 328 
38 363 
38 402 
38 421 
38 437 
38 439 
38 447 
38 505 
38 511 
39 267 
39 268 
39 283 
39 287 
39 300 
39 306 
39 321 
39 347 
39 357 
39 375 
39 392 
39 398 
39 443 
39 462 
39 466 
39 504 
40 272 
40 273 
40 299 
40 334 
40 361 
40 376 
40 378 
40 379 
40 436 
40 445 
40 472 
40 476 
40 479 
40 484 
40 501 
40 502 
41 273 
41 285 
41 289 
41 354 
41 382 
41 436 
41 467 
41 469 
41 470 
41 471 
41 476 
41 479 
41 486 
41 499 
41 501 
41 502 
42 262 
42 275 
42 292 
42 298 
42 304 
42 307 
42 316 
42 333 
42 352 
42 365 
42 368 
42 423 
42 425 
42 454 
42 487 
42 489 
43 291 
43 301 
43 309 
43 311 
43 315 
43 317 
43 337 
43 346 
43 362 
43 364 
43 380 
43 391 
43 406 
43 419 
43 496 
43 512 
44 267 
44 279 
44 283 
44 287 
44 300 
44 306 
44 342 
44 357 
44 398 
44 429 
44 432 
44 434 
44 444 
44 451 
44 462 
44 504 
45 267 
45 279 
45 283 
45 287 
45 326 
45 342 
45 345 
45 357 
45 375 
45 429 
45 432 
45 434 
45 444 
45 462 
45 504 
45 507 
46 258 
46 260 
46 263 
46 270 
46 271 
46 295 
46 318 
46 320 
46 388 
46 393 
46 420 
46 421 
46 438 
46 439 
46 447 
46 497 
47 323 
47 339 
47 341 
47 351 
47 373 
47 384 
47 389 
47 408 
47 418 
47 433 
47 442 
47 446 
47 464 
47 482 
47 493 
47 495 
48 284 
48 294 
48 322 
48 323 
48 339 
48 355 
48 372 
48 373 
48 408 
48 431 
48 446 
48 464 
48 482 
48 493 
48 498 
48 510 
49 272 
49 290 
49 299 
49 303 
49 334 
49 361 
49 370 
49 371 
49 379 
49 382 
49 445 
49 469 
49 476 
49 484 
49 499 
49 502 
50 258 
50 264 
50 266 
50 270 
50 271 
50 363 
50 402 
50 407 
50 420 
50 421 
50 422 
50 437 
50 439 
50 447 
50 497 
50 511 
51 265 
51 297 
51 327 
51 329 
51 360 
51 385 
51 386 
51 396 
51 403 
51 413 
51 428 
51 448 
51 455 
51 457 
51 475 
51 477 
52 268 
52 279 
52 300 
52 324 
52 326 
52 392 
52 398 
52 399 
52 417 
52 432 
52 443 
52 450 
52 451 
52 466 
52 481 
52 483 
53 264 
53 270 
53 305 
53 318 
53 328 
53 363 
53 383 
53 393 
53 407 
53 421 
53 422 
53 437 
53 438 
53 439 
53 447 
53 497 
54 284 
54 323 
54 339 
54 340 
54 341 
54 372 
54 384 
54 389 
54 442 
54 453 
54 456 
54 464 
54 482 
54 490 
54 495 
54 498 
55 265 
55 297 
55 327 
55 356 
55 386 
55 401 
55 403 
55 404 
55 405 
55 413 
55 441 
55 448 
55 455 
55 458 
55 475 
55 494 
56 301 
56 309 
56 315 
56 317 
56 338 
56 346 
56 362 
56 364 
56 369 
56 387 
56 391 
56 406 
56 416 
56 419 
56 460 
56 512 
57 269 
57 281 
57 292 
57 298 
57 304 
57 313 
57 330 
57 333 
57 352 
57 368 
57 412 
57 427 
57 454 
57 474 
57 488 
57 489 
58 265 
58 286 
58 302 
58 327 
58 329 
58 332 
58 360 
58 385 
58 396 
58 403 
58 405 
58 428 
58 441 
58 448 
58 475 
58 485 
59 297 
59 329 
59 344 
59 360 
59 386 
59 396 
59 403 
59 405 
59 413 
59 428 
59 448 
59 455 
59 457 
59 475 
59 480 
59 494 
60 265 
60 286 
60 288 
60 302 
60 308 
60 332 
60 356 
60 386 
60 396 
60 428 
60 441 
60 458 
60 475 
60 477 
60 480 
60 494 
61 286 
61 302 
61 327 
61 332 
61 344 
61 356 
61 358 
61 360 
61 385 
61 386 
61 403 
61 404 
61 405 
61 428 
61 441 
61 448 
62 286 
62 302 
62 329 
62 332 
62 344 
62 358 
62 385 
62 386 
62 403 
62 404 
62 405 
62 428 
62 448 
62 457 
62 458 
62 480 
63 257 
63 261 
63 274 
63 277 
63 278 
63 348 
63 366 
63 367 
63 397 
63 409 
63 435 
63 449 
63 463 
63 500 
63 506 
63 508 
64 284 
64 294 
64 322 
64 339 
64 340 
64 341 
64 349 
64 359 
64 373 
64 384 
64 408 
64 418 
64 433 
64 446 
64 482 
64 510 
65 264 
65 266 
65 270 
65 305 
65 363 
65 374 
65 383 
65 402 
65 407 
65 420 
65 421 
65 422 
65 437 
65 447 
65 505 
65 511 
66 286 
66 288 
66 302 
66 308 
66 332 
66 344 
66 356 
66 358 
66 401 
66 404 
66 405 
66 441 
66 458 
66 480 
66 485 
66 494 
67 288 
67 297 
67 308 
67 327 
67 344 
67 356 
67 360 
67 386 
67 396 
67 401 
67 405 
67 413 
67 455 
67 457 
67 475 
67 494 
68 259 
68 274 
68 276 
68 277 
68 336 
68 348 
68 366 
68 397 
68 435 
68 452 
68 461 
68 463 
68 478 
68 500 
68 503 
68 508 
69 279 
69 283 
69 321 
69 326 
69 342 
69 345 
69 357 
69 375 
69 398 
69 399 
69 417 
69 429 
69 434 
69 443 
69 450 
69 481 
70 291 
70 314 
70 317 
70 319 
70 325 
70 337 
70 364 
70 369 
70 391 
70 394 
70 411 
70 459 
70 460 
70 468 
70 496 
70 512 
71 282 
71 285 
71 289 
71 290 
71 299 
71 334 
71 361 
71 370 
71 371 
71 376 
71 424 
71 436 
71 469 
71 472 
71 484 
71 486 
72 257 
72 259 
72 261 
72 276 
72 278 
72 343 
72 348 
72 350 
72 353 
72 367 
72 410 
72 435 
72 440 
72 449 
72 491 
72 500 
73 257 
73 261 
73 336 
73 348 
73 350 
73 366 
73 397 
73 409 
73 430 
73 440 
73 449 
73 463 
73 500 
73 503 
73 506 
73 508 
74 272 
74 282 
74 289 
74 290 
74 334 
74 378 
74 382 
74 424 
74 436 
74 467 
74 470 
74 479 
74 484 
74 486 
74 499 
74 501 
75 258 
75 260 
75 264 
75 295 
75 296 
75 305 
75 318 
75 320 
75 331 
75 388 
75 402 
75 414 
75 420 
75 439 
75 505 
75 511 
76 284 
76 323 
76 339 
76 340 
76 355 
76 384 
76 389 
76 408 
76 433 
76 442 
76 456 
76 464 
76 490 
76 492 
76 495 
76 498 
77 265 
77 286 
77 288 
77 302 
77 308 
77 327 
77 332 
77 356 
77 358 
77 385 
77 401 
77 404 
77 441 
77 458 
77 477 
77 485 
78 285 
78 289 
78 290 
78 303 
78 334 
78 354 
78 361 
78 370 
78 378 
78 470 
78 472 
78 476 
78 479 
78 486 
78 499 
78 502 
79 274 
79 277 
79 336 
79 366 
79 381 
79 397 
79 409 
79 430 
79 452 
79 461 
79 463 
79 473 
79 478 
79 503 
79 506 
79 508 
80 262 
80 269 
80 281 
80 292 
80 293 
80 304 
80 330 
80 352 
80 365 
80 390 
80 400 
80 412 
80 415 
80 427 
80 454 
80 488 
81 262 
81 280 
81 292 
81 298 
81 307 
81 313 
81 330 
81 335 
81 352 
81 368 
81 390 
81 400 
81 412 
81 423 
81 427 
81 488 
82 260 
82 264 
82 271 
82 295 
82 318 
82 383 
82 388 
82 402 
82 414 
82 420 
82 421 
82 422 
82 438 
82 439 
82 447 
82 497 
83 301 
83 309 
83 311 
83 315 
83 338 
83 346 
83 362 
83 377 
83 380 
83 387 
83 395 
83 406 
83 416 
83 419 
83 426 
83 509 
84 257 
84 261 
84 276 
84 277 
84 336 
84 348 
84 353 
84 366 
84 381 
84 410 
84 435 
84 440 
84 478 
84 491 
84 503 
84 506 
85 259 
85 276 
85 336 
85 343 
85 350 
85 353 
85 381 
85 410 
85 430 
85 440 
85 452 
85 461 
85 473 
85 478 
85 491 
85 503 
86 267 
86 268 
86 283 
86 306 
86 324 
86 345 
86 347 
86 375 
86 392 
86 399 
86 432 
86 444 
86 450 
86 466 
86 481 
86 507 
87 257 
87 259 
87 276 
87 277 
87 336 
87 366 
87 410 
87 430 
87 440 
87 461 
87 473 
87 478 
87 491 
87 500 
87 503 
87 508 
88 261 
88 276 
88 277 
88 348 
88 353 
88 366 
88 367 
88 410 
88 435 
88 440 
88 449 
88 452 
88 491 
88 500 
88 503 
88 506 
89 259 
89 261 
89 277 
89 336 
89 366 
89 381 
89 409 
89 410 
89 435 
89 440 
89 449 
89 452 
89 463 
89 473 
89 503 
89 508 
90 291 
90 301 
90 315 
90 317 
90 319 
90 325 
90 346 
90 380 
90 387 
90 391 
90 394 
90 419 
90 460 
90 496 
90 509 
90 512 
91 294 
91 322 
91 340 
91 341 
91 351 
91 359 
91 372 
91 373 
91 418 
91 431 
91 442 
91 453 
91 456 
91 464 
91 465 
91 482 
92 257 
92 277 
92 278 
92 336 
92 353 
92 366 
92 397 
92 409 
92 430 
92 440 
92 461 
92 463 
92 473 
92 478 
92 500 
92 506 
93 269 
93 275 
93 281 
93 293 
93 310 
93 312 
93 313 
93 316 
93 335 
93 390 
93 415 
93 427 
93 454 
93 474 
93 487 
93 489 
94 265 
94 286 
94 302 
94 308 
94 327 
94 332 
94 356 
94 358 
94 360 
94 385 
94 386 
94 401 
94 404 
94 405 
94 448 
94 457 
95 263 
95 266 
95 271 
95 295 
95 328 
95 383 
95 388 
95 393 
95 414 
95 421 
95 422 
95 437 
95 438 
95 439 
95 447 
95 505 
96 275 
96 280 
96 293 
96 307 
96 312 
96 316 
96 333 
96 335 
96 352 
96 365 
96 415 
96 423 
96 425 
96 474 
96 487 
96 489 
97 275 
97 280 
97 281 
97 310 
97 312 
97 313 
97 333 
97 335 
97 368 
97 412 
97 415 
97 423 
97 425 
97 474 
97 488 
97 489 
98 301 
98 309 
98 311 
98 315 
98 317 
98 319 
98 337 
98 338 
98 369 
98 391 
98 394 
98 411 
98 416 
98 419 
98 509 
98 512 
99 257 
99 259 
99 274 
99 278 
99 336 
99 343 
99 350 
99 381 
99 397 
99 409 
99 430 
99 461 
99 463 
99 473 
99 478 
99 508 
100 262 
100 269 
100 275 
100 280 
100 281 
100 292 
100 293 
100 298 
100 304 
100 310 
100 365 
100 390 
100 412 
100 425 
100 488 
100 489 
101 287 
101 300 
101 306 
101 324 
101 342 
101 347 
101 417 
101 432 
101 434 
101 443 
101 450 
101 451 
101 466 
101 481 
101 483 
101 507 
102 273 
102 282 
102 285 
102 299 
102 334 
102 354 
102 361 
102 370 
102 371 
102 376 
102 379 
102 382 
102 436 
102 445 
102 469 
102 476 
103 267 
103 283 
103 287 
103 300 
103 321 
103 326 
103 347 
103 357 
103 375 
103 392 
103 398 
103 434 
103 444 
103 450 
103 466 
103 481 
104 268 
104 279 
104 306 
104 324 
104 342 
104 345 
104 399 
104 417 
104 429 
104 432 
104 443 
104 451 
104 462 
104 483 
104 504 
104 507 
105 268 
105 300 
105 306 
105 321 
105 324 
105 347 
105 392 
105 398 
105 399 
105 417 
105 443 
105 450 
105 451 
105 466 
105 481 
105 483 
106 269 
106 275 
106 281 
106 292 
106 304 
106 316 
106 352 
106 365 
106 368 
106 390 
106 412 
106 415 
106 427 
106 454 
106 474 
106 489 
107 286 
107 308 
107 332 
107 344 
107 356 
107 360 
107 396 
107 401 
107 405 
107 441 
107 448 
107 455 
107 475 
107 480 
107 485 
107 494 
108 315 
108 317 
108 319 
108 325 
108 346 
108 364 
108 380 
108 387 
108 391 
108 394 
108 395 
108 416 
108 419 
108 459 
108 460 
108 496 
109 268 
109 321 
109 324 
109 326 
109 345 
109 347 
109 375 
109 392 
109 399 
109 417 
109 443 
109 450 
109 466 
109 481 
109 483 
109 507 
110 257 
110 274 
110 276 
110 278 
110 343 
110 348 
110 350 
110 353 
110 367 
110 397 
110 430 
110 461 
110 478 
110 491 
110 500 
110 506 
111 262 
111 269 
111 307 
111 312 
111 316 
111 330 
111 335 
111 352 
111 365 
111 368 
111 390 
111 415 
111 427 
111 454 
111 487 
111 489 
112 265 
112 286 
112 288 
112 302 
112 308 
112 329 
112 332 
112 360 
112 386 
112 401 
112 404 
112 457 
112 475 
112 477 
112 480 
112 494 
113 286 
113 329 
113 332 
113 344 
113 385 
113 401 
113 403 
113 404 
113 441 
113 448 
113 455 
113 458 
113 475 
113 477 
113 480 
113 485 
114 284 
114 294 
114 322 
114 323 
114 339 
114 341 
114 372 
114 384 
114 408 
114 442 
114 456 
114 464 
114 490 
114 492 
114 493 
114 498 
115 269 
115 280 
115 292 
115 293 
115 304 
115 307 
115 330 
115 333 
115 352 
115 365 
115 400 
115 412 
115 415 
115 425 
115 474 
115 488 
116 273 
116 282 
116 285 
116 334 
116 354 
116 370 
116 371 
116 376 
116 378 
116 379 
116 436 
116 467 
116 470 
116 472 
116 476 
116 486 
117 262 
117 269 
117 307 
117 310 
117 312 
117 313 
117 316 
117 330 
117 335 
117 368 
117 390 
117 400 
117 415 
117 427 
117 454 
117 487 
118 272 
118 289 
118 290 
118 303 
118 378 
118 424 
118 467 
118 470 
118 471 
118 472 
118 479 
118 484 
118 486 
118 499 
118 501 
118 502 
119 265 
119 297 
119 329 
119 360 
119 385 
119 401 
119 403 
119 404 
119 405 
119 413 
119 441 
119 448 
119 455 
119 475 
119 480 
119 485 
120 267 
120 283 
120 287 
120 306 
120 321 
120 342 
120 345 
120 347 
120 357 
120 375 
120 429 
120 434 
120 444 
120 462 
120 504 
120 507 
121 288 
121 297 
121 329 
121 344 
121 396 
121 403 
121 413 
121 428 
121 441 
121 455 
121 458 
121 475 
121 477 
121 480 
121 485 
121 494 
122 279 
122 287 
122 300 
122 321 
122 326 
122 342 
122 357 
122 398 
122 417 
122 429 
122 434 
122 443 
122 451 
122 462 
122 483 
122 504 
123 294 
123 322 
123 341 
123 349 
123 351 
123 359 
123 372 
123 373 
123 418 
123 431 
123 446 
123 453 
123 465 
123 482 
123 493 
123 510 
124 286 
124 288 
124 302 
124 308 
124 327 
124 332 
124 344 
124 356 
124 358 
124 360 
124 396 
124 428 
124 441 
124 477 
124 485 
124 494 
125 272 
125 273 
125 282 
125 299 
125 371 
125 376 
125 379 
125 382 
125 424 
125 436 
125 445 
125 467 
125 469 
125 471 
125 484 
125 501 
126 273 
126 282 
126 285 
126 354 
126 370 
126 371 
126 376 
126 379 
126 382 
126 424 
126 436 
126 467 
126 469 
126 470 
126 471 
126 486 
127 257 
127 261 
127 278 
127 343 
127 350 
127 353 
127 367 
127 381 
127 409 
127 410 
127 430 
127 440 
127 449 
127 473 
127 491 
127 506 
128 258 
128 264 
128 270 
128 271 
128 295 
128 296 
128 318 
128 320 
128 331 
128 363 
128 393 
128 420 
128 437 
128 438 
128 439 
128 505 
129 259 
129 274 
129 276 
129 277 
129 278 
129 343 
129 353 
129 367 
129 381 
129 410 
129 435 
129 452 
129 461 
129 473 
129 478 
129 491 
130 259 
130 261 
130 274 
130 276 
130 336 
130 343 
130 348 
130 350 
130 397 
130 430 
130 449 
130 452 
130 491 
130 500 
130 503 
130 508 
131 315 
131 325 
131 362 
131 369 
131 377 
131 387 
131 395 
131 406 
131 411 
131 416 
131 426 
131 459 
131 460 
131 468 
131 496 
131 509 
132 276 
132 277 
132 343 
132 367 
132 410 
132 430 
132 440 
132 449 
132 452 
132 461 
132 463 
132 473 
132 500 
132 503 
132 506 
132 508 
133 272 
133 273 
133 289 
133 299 
133 303 
133 354 
133 370 
133 371 
133 376 
133 378 
133 382 
133 467 
133 471 
133 476 
133 486 
133 502 
134 260 
134 263 
134 295 
134 296 
134 305 
134 318 
134 320 
134 328 
134 331 
134 374 
134 383 
134 388 
134 393 
134 414 
134 438 
134 505 
135 291 
135 301 
135 309 
135 311 
135 314 
135 317 
135 319 
135 337 
135 338 
135 346 
135 364 
135 380 
135 391 
135 394 
135 419 
135 512 
136 284 
136 339 
136 349 
136 355 
136 359 
136 372 
136 389 
136 418 
136 431 
136 442 
136 453 
136 456 
136 490 
136 492 
136 493 
136 495 
137 269 
137 275 
137 281 
137 298 
137 312 
137 333 
137 335 
137 352 
137 365 
137 368 
137 400 
137 427 
137 454 
137 474 
137 487 
137 488 
138 286 
138 288 
138 302 
138 308 
138 329 
138 332 
138 344 
138 358 
138 360 
138 385 
138 396 
138 428 
138 457 
138 477 
138 480 
138 485 
139 275 
139 280 
139 281 
139 292 
139 293 
139 298 
139 304 
139 310 
139 313 
139 333 
139 400 
139 412 
139 423 
139 425 
139 474 
139 488 
140 261 
140 274 
140 276 
140 277 
140 336 
140 343 
140 348 
140 353 
140 397 
140 435 
140 449 
140 452 
140 463 
140 500 
140 503 
140 506 
141 272 
141 282 
141 290 
141 299 
141 303 
141 378 
141 379 
141 424 
141 467 
141 471 
141 472 
141 479 
141 484 
141 486 
141 499 
141 501 
142 265 
142 288 
142 297 
142 302 
142 308 
142 327 
142 356 
142 358 
142 360 
142 386 
142 396 
142 405 
142 413 
142 428 
142 457 
142 494 
143 272 
143 289 
143 290 
143 299 
143 303 
143 334 
143 361 
143 378 
143 445 
143 472 
143 476 
143 479 
143 484 
143 499 
143 501 
143 502 
144 258 
144 263 
144 266 
144 270 
144 296 
144 305 
144 320 
144 328 
144 331 
144 363 
144 374 
144 393 
144 407 
144 437 
144 505 
144 511 
145 307 
145 312 
145 313 
145 316 
145 330 
145 333 
145 335 
145 352 
145 368 
145 400 
145 415 
145 423 
145 427 
145 454 
145 474 
145 487 
146 262 
146 275 
146 280 
146 281 
146 293 
146 298 
146 312 
146 316 
146 335 
146 352 
146 365 
146 390 
146 400 
146 423 
146 427 
146 487 
147 258 
147 260 
147 263 
147 296 
147 305 
147 318 
147 320 
147 328 
147 331 
147 388 
147 402 
147 407 
147 414 
147 439 
147 505 
147 511 
148 273 
148 285 
148 289 
148 299 
148 334 
148 370 
148 371 
148 376 
148 378 
148 424 
148 436 
148 467 
148 472 
148 484 
148 486 
148 502 
149 267 
149 268 
149 279 
149 283 
149 300 
149 321 
149 326 
149 357 
149 375 
149 392 
149 399 
149 443 
149 462 
149 466 
149 504 
149 507 
150 315 
150 317 
150 319 
150 325 
150 337 
150 338 
150 364 
150 380 
150 391 
150 394 
150 411 
150 416 
150 459 
150 460 
150 468 
150 512 
151 291 
151 301 
151 309 
151 315 
151 319 
151 338 
151 346 
151 364 
151 377 
151 380 
151 387 
151 394 
151 395 
151 419 
151 426 
151 460 
152 269 
152 275 
152 281 
152 293 
152 304 
152 310 
152 312 
152 316 
152 333 
152 365 
152 415 
152 425 
152 454 
152 474 
152 487 
152 489 
153 257 
153 276 
153 278 
153 343 
153 350 
153 367 
153 410 
153 430 
153 440 
153 461 
153 473 
153 478 
153 491 
153 500 
153 506 
153 508 
154 275 
154 280 
154 281 
154 292 
154 293 
154 298 
154 304 
154 333 
154 352 
154 365 
154 412 
154 423 
154 425 
154 474 
154 488 
154 489 
155 257 
155 259 
155 261 
155 274 
155 278 
155 336 
155 348 
155 350 
155 353 
155 366 
155 381 
155 397 
155 409 
155 435 
155 478 
155 491 
156 297 
156 302 
156 327 
156 329 
156 332 
156 344 
156 360 
156 396 
156 403 
156 428 
156 448 
156 457 
156 475 
156 477 
156 485 
156 494 
157 275 
157 280 
157 298 
157 307 
157 310 
157 312 
157 313 
157 316 
157 333 
157 335 
157 368 
157 423 
157 425 
157 474 
157 487 
157 489 
158 268 
158 279 
158 287 
158 324 
158 326 
158 345 
158 375 
158 392 
158 398 
158 417 
158 429 
158 432 
158 444 
158 462 
158 481 
158 483 
159 309 
159 311 
159 314 
159 317 
159 319 
159 337 
159 338 
159 346 
159 362 
159 369 
159 391 
159 395 
159 416 
159 459 
159 468 
159 509 
160 340 
160 349 
160 351 
160 355 
160 359 
160 373 
160 389 
160 418 
160 431 
160 433 
160 446 
160 453 
160 465 
160 482 
160 495 
160 510 
161 269 
161 292 
161 304 
161 307 
161 310 
161 313 
161 330 
161 333 
161 368 
161 412 
161 415 
161 425 
161 454 
161 474 
161 488 
161 489 
162 291 
162 301 
162 311 
162 315 
162 317 
162 319 
162 325 
162 346 
162 362 
162 369 
162 387 
162 426 
162 468 
162 496 
162 509 
162 512 
163 267 
163 268 
163 287 
163 300 
163 321 
163 324 
163 326 
163 342 
163 347 
163 375 
163 429 
163 444 
163 450 
163 483 
163 504 
163 507 
164 273 
164 282 
164 285 
164 289 
164 354 
164 376 
164 378 
164 424 
164 436 
164 467 
164 470 
164 471 
164 472 
164 479 
164 486 
164 501 
165 265 
165 297 
165 329 
165 385 
165 386 
165 401 
165 403 
165 404 
165 405 
165 413 
165 448 
165 455 
165 457 
165 458 
165 475 
165 480 
166 258 
166 264 
166 266 
166 270 
166 296 
166 305 
166 320 
166 331 
166 363 
166 393 
166 407 
166 420 
166 437 
166 439 
166 497 
166 511 
167 268 
167 279 
167 283 
167 300 
167 306 
167 324 
167 375 
167 392 
167 398 
167 399 
167 417 
167 432 
167 443 
167 450 
167 466 
167 504 
168 258 
168 260 
168 264 
168 266 
168 270 
168 305 
168 328 
168 388 
168 402 
168 407 
168 421 
168 422 
168 439 
168 447 
168 505 
168 511 
169 260 
169 264 
169 271 
169 296 
169 318 
169 320 
169 328 
169 383 
169 388 
169 402 
169 407 
169 414 
169 439 
169 447 
169 505 
169 511 
170 261 
170 274 
170 278 
170 343 
170 348 
170 350 
170 353 
170 367 
170 381 
170 397 
170 409 
170 435 
170 449 
170 452 
170 463 
170 506 
171 284 
171 294 
171 323 
171 340 
171 355 
171 373 
171 389 
171 408 
171 418 
171 431 
171 433 
171 442 
171 456 
171 464 
171 465 
171 492 
172 258 
172 264 
172 266 
172 270 
172 271 
172 295 
172 296 
172 320 
172 328 
172 363 
172 374 
172 393 
172 437 
172 447 
172 505 
172 511 
173 262 
173 280 
173 292 
173 298 
173 304 
173 307 
173 330 
173 333 
173 352 
173 365 
173 368 
173 400 
173 412 
173 423 
173 425 
173 488 
174 291 
174 301 
174 309 
174 311 
174 314 
174 346 
174 362 
174 369 
174 377 
174 387 
174 395 
174 406 
174 419 
174 426 
174 496 
174 509 
175 269 
175 298 
175 307 
175 310 
175 312 
175 330 
175 335 
175 365 
175 368 
175 390 
175 427 
175 454 
175 474 
175 487 
175 488 
175 489 
176 265 
176 286 
176 288 
176 308 
176 356 
176 358 
176 385 
176 386 
176 401 
176 404 
176 405 
176 413 
176 441 
176 455 
176 458 
176 480 
177 258 
177 260 
177 263 
177 266 
177 271 
177 295 
177 296 
177 320 
177 331 
177 374 
177 388 
177 402 
177 414 
177 420 
177 505 
177 511 
178 291 
178 301 
178 309 
178 311 
178 314 
178 317 
178 319 
178 337 
178 346 
178 369 
178 391 
178 394 
178 419 
178 496 
178 509 
178 512 
179 284 
179 294 
179 322 
179 339 
179 355 
179 359 
179 384 
179 433 
179 453 
179 456 
179 464 
179 490 
179 492 
179 493 
179 498 
179 510 
180 279 
180 283 
180 306 
180 321 
180 324 
180 342 
180 345 
180 375 
180 399 
180 417 
180 429 
180 434 
180 444 
180 450 
180 481 
180 507 
181 267 
181 268 
181 279 
181 287 
181 300 
181 321 
181 324 
181 326 
181 375 
181 392 
181 398 
181 444 
181 450 
181 466 
181 481 
181 483 
182 285 
182 289 
182 290 
182 303 
182 361 
182 370 
182 371 
182 376 
182 424 
182 469 
182 470 
182 471 
182 472 
182 484 
182 486 
182 502 
183 265 
183 286 
183 308 
183 327 
183 356 
183 360 
183 385 
183 396 
183 413 
183 428 
183 448 
183 455 
183 457 
183 475 
183 477 
183 485 
184 286 
184 288 
184 302 
184 308 
184 327 
184 332 
184 344 
184 356 
184 358 
184 386 
184 396 
184 428 
184 457 
184 458 
184 477 
184 494 
185 273 
185 285 
185 289 
185 299 
185 334 
185 354 
185 361 
185 370 
185 378 
185 382 
185 424 
185 436 
185 445 
185 479 
185 499 
185 502 
186 279 
186 324 
186 326 
186 342 
186 345 
186 399 
186 417 
186 429 
186 432 
186 434 
186 444 
186 450 
186 451 
186 481 
186 483 
186 507 
187 259 
187 261 
187 274 
187 277 
187 336 
187 348 
187 353 
187 366 
187 381 
187 397 
187 409 
187 435 
187 449 
187 452 
187 463 
187 503 
188 311 
188 315 
188 319 
188 325 
188 337 
188 338 
188 346 
188 362 
188 364 
188 369 
188 377 
188 395 
188 416 
188 426 
188 459 
188 468 
189 288 
189 297 
189 308 
189 344 
189 356 
189 358 
189 386 
189 401 
189 404 
189 413 
189 455 
189 457 
189 458 
189 477 
189 480 
189 494 
190 267 
190 287 
190 321 
190 326 
190 342 
190 345 
190 347 
190 357 
190 429 
190 434 
190 444 
190 451 
190 462 
190 481 
190 483 
190 507 
191 260 
191 264 
191 270 
191 295 
191 305 
191 318 
191 320 
191 363 
191 374 
191 383 
191 402 
191 420 
191 421 
191 438 
191 447 
191 505 
192 261 
192 276 
192 278 
192 348 
192 350 
192 353 
192 366 
192 367 
192 381 
192 397 
192 430 
192 440 
192 449 
192 452 
192 463 
192 506 
193 284 
193 294 
193 322 
193 339 
193 341 
193 349 
193 359 
193 372 
193 373 
193 408 
193 431 
193 446 
193 492 
193 493 
193 498 
193 510 
194 258 
194 260 
194 263 
194 271 
194 295 
194 296 
194 318 
194 320 
194 328 
194 331 
194 388 
194 393 
194 414 
194 438 
194 439 
194 497 
195 309 
195 314 
195 337 
195 338 
195 364 
195 377 
195 380 
195 391 
195 394 
195 395 
195 406 
195 411 
195 416 
195 419 
195 459 
195 460 
196 263 
196 270 
196 295 
196 305 
196 318 
196 328 
196 331 
196 363 
196 383 
196 402 
196 421 
196 422 
196 437 
196 439 
196 497 
196 511 
197 291 
197 314 
197 325 
197 346 
197 362 
197 364 
197 377 
197 380 
197 387 
197 395 
197 406 
197 426 
197 459 
197 460 
197 468 
197 496 
198 258 
198 263 
198 266 
198 271 
198 296 
198 328 
198 331 
198 388 
198 393 
198 407 
198 414 
198 422 
198 437 
198 439 
198 497 
198 511 
199 257 
199 259 
199 278 
199 350 
199 366 
199 367 
199 381 
199 409 
199 410 
199 430 
199 440 
199 461 
199 473 
199 478 
199 491 
199 508 
200 267 
200 300 
200 306 
200 321 
200 324 
200 342 
200 347 
200 375 
200 398 
200 399 
200 429 
200 434 
200 444 
200 450 
200 481 
200 483 
201 267 
201 283 
201 300 
201 306 
201 321 
201 342 
201 347 
201 357 
201 399 
201 434 
201 443 
201 450 
201 451 
201 466 
201 504 
201 507 
202 272 
202 273 
202 289 
202 299 
202 334 
202 354 
202 382 
202 424 
202 436 
202 445 
202 467 
202 469 
202 479 
202 499 
202 501 
202 502 
203 272 
203 282 
203 290 
203 303 
203 371 
203 376 
203 379 
203 467 
203 469 
203 470 
203 471 
203 472 
203 476 
203 484 
203 486 
203 501 
204 291 
204 301 
204 311 
204 314 
204 319 
204 325 
204 338 
204 346 
204 362 
204 364 
204 369 
204 377 
204 387 
204 395 
204 419 
204 426 
205 297 
205 327 
205 344 
205 356 
205 358 
205 385 
205 396 
205 403 
205 405 
205 413 
205 428 
205 441 
205 448 
205 455 
205 458 
205 485 
206 259 
206 274 
206 278 
206 343 
206 350 
206 367 
206 397 
206 409 
206 430 
206 449 
206 452 
206 461 
206 463 
206 473 
206 500 
206 508 
207 267 
207 268 
207 279 
207 300 
207 321 
207 324 
207 326 
207 392 
207 399 
207 444 
207 450 
207 451 
207 466 
207 483 
207 504 
207 507 
208 294 
208 322 
208 323 
208 340 
208 341 
208 351 
208 373 
208 384 
208 408 
208 433 
208 446 
208 464 
208 465 
208 482 
208 498 
208 510 
209 272 
209 289 
209 290 
209 299 
209 303 
209 361 
209 382 
209 424 
209 445 
209 469 
209 471 
209 479 
209 484 
209 499 
209 501 
209 502 
210 340 
210 341 
210 349 
210 351 
210 359 
210 384 
210 389 
210 418 
210 433 
210 442 
210 453 
210 456 
210 465 
210 490 
210 492 
210 495 
211 297 
211 327 
211 329 
211 344 
211 358 
211 360 
211 385 
211 401 
211 403 
211 404 
211 405 
211 413 
211 448 
211 455 
211 457 
211 485 
212 294 
212 322 
212 349 
212 351 
212 355 
212 359 
212 373 
212 408 
212 418 
212 431 
212 433 
212 446 
212 465 
212 492 
212 493 
212 510 
213 262 
213 269 
213 292 
213 293 
213 298 
213 304 
213 307 
213 316 
213 330 
213 352 
213 365 
213 390 
213 400 
213 427 
213 454 
213 487 
214 272 
214 273 
214 282 
214 289 
214 354 
214 361 
214 370 
214 371 
214 376 
214 378 
214 382 
214 436 
214 445 
214 470 
214 471 
214 476 
215 282 
215 285 
215 290 
215 303 
215 361 
215 370 
215 371 
215 376 
215 378 
215 379 
215 470 
215 471 
215 472 
215 476 
215 484 
215 486 
216 262 
216 269 
216 280 
216 304 
216 307 
216 312 
216 313 
216 330 
216 333 
216 352 
216 368 
216 400 
216 415 
216 425 
216 487 
216 488 
217 322 
217 351 
217 355 
217 359 
217 372 
217 384 
217 408 
217 418 
217 456 
217 464 
217 465 
217 482 
217 490 
217 493 
217 495 
217 510 
218 279 
218 283 
218 306 
218 345 
218 357 
218 392 
218 398 
218 399 
218 417 
218 432 
218 434 
218 443 
218 451 
218 462 
218 466 
218 481 
219 261 
219 274 
219 277 
219 278 
219 343 
219 348 
219 367 
219 381 
219 397 
219 409 
219 430 
219 449 
219 452 
219 463 
219 506 
219 508 
220 291 
220 301 
220 309 
220 314 
220 317 
220 380 
220 387 
220 391 
220 394 
220 406 
220 411 
220 419 
220 460 
220 496 
220 509 
220 512 
221 275 
221 281 
221 292 
221 293 
221 298 
221 310 
221 316 
221 335 
221 365 
221 390 
221 412 
221 423 
221 427 
221 454 
221 474 
221 489 
222 260 
222 263 
222 266 
222 305 
222 328 
222 374 
222 383 
222 388 
222 402 
222 407 
222 414 
222 421 
222 422 
222 447 
222 497 
222 511 
223 265 
223 288 
223 297 
223 308 
223 329 
223 396 
223 401 
223 413 
223 455 
223 457 
223 458 
223 475 
223 477 
223 480 
223 485 
223 494 
224 264 
224 266 
224 270 
224 271 
224 295 
224 363 
224 374 
224 383 
224 393 
224 420 
224 421 
224 422 
224 437 
224 438 
224 447 
224 497 
225 258 
225 263 
225 266 
225 270 
225 295 
225 305 
225 331 
225 363 
225 374 
225 393 
225 420 
225 421 
225 422 
225 437 
225 438 
225 497 
226 259 
226 261 
226 274 
226 276 
226 343 
226 348 
226 350 
226 367 
226 381 
226 410 
226 435 
226 449 
226 452 
226 491 
226 503 
226 508 
227 272 
227 273 
227 282 
227 299 
227 334 
227 354 
227 378 
227 379 
227 382 
227 436 
227 445 
227 467 
227 476 
227 479 
227 499 
227 501 
228 257 
228 259 
228 276 
228 336 
228 350 
228 353 
228 366 
228 410 
228 435 
228 440 
228 461 
228 473 
228 478 
228 491 
228 500 
228 503 
229 311 
229 314 
229 317 
229 325 
229 337 
229 362 
229 369 
229 391 
229 406 
229 411 
229 416 
229 459 
229 468 
229 496 
229 509 
229 512 
230 259 
230 261 
230 276 
230 277 
230 348 
230 366 
230 367 
230 381 
230 410 
230 430 
230 440 
230 449 
230 452 
230 491 
230 503 
230 508 
231 323 
231 339 
231 340 
231 341 
231 349 
231 351 
231 372 
231 373 
231 384 
231 389 
231 442 
231 446 
231 453 
231 492 
231 495 
231 498 
232 262 
232 275 
232 280 
232 293 
232 307 
232 310 
232 312 
232 316 
232 335 
232 365 
232 390 
232 400 
232 415 
232 423 
232 425 
232 487 
233 269 
233 280 
233 281 
233 293 
233 310 
233 312 
233 313 
233 330 
233 335 
233 390 
233 400 
233 412 
233 415 
233 427 
233 474 
233 488 
234 322 
234 339 
234 341 
234 349 
234 351 
234 359 
234 372 
234 384 
234 446 
234 453 
234 482 
234 490 
234 493 
234 495 
234 498 
234 510 
235 265 
235 288 
235 297 
235 308 
235 327 
235 356 
235 360 
235 396 
235 401 
235 413 
235 441 
235 455 
235 475 
235 477 
235 485 
235 494 
236 273 
236 285 
236 299 
236 303 
236 354 
236 361 
236 370 
236 371 
236 376 
236 379 
236 445 
236 469 
236 471 
236 472 
236 476 
236 502 
237 262 
237 275 
237 281 
237 298 
237 310 
237 312 
237 313 
237 316 
237 335 
237 368 
237 390 
237 423 
237 427 
237 454 
237 487 
237 489 
238 273 
238 285 
238 289 
238 334 
238 354 
238 361 
238 370 
238 371 
238 376 
238 382 
238 436 
238 445 
238 469 
238 470 
238 476 
238 502 
239 282 
239 285 
239 290 
239 334 
239 361 
239 379 
239 424 
239 436 
239 445 
239 469 
239 470 
239 472 
239 479 
239 484 
239 499 
239 501 
240 262 
240 280 
240 293 
240 298 
240 307 
240 310 
240 312 
240 313 
240 330 
240 333 
240 335 
240 400 
240 423 
240 425 
240 487 
240 488 
241 285 
241 290 
241 299 
241 303 
241 334 
241 379 
241 424 
241 467 
241 469 
241 472 
241 479 
241 484 
241 486 
241 499 
241 501 
241 502 
242 282 
242 285 
242 289 
242 290 
242 303 
242 354 
242 370 
242 371 
242 382 
242 424 
242 467 
242 469 
242 470 
242 471 
242 486 
242 499 
243 294 
243 322 
243 323 
243 340 
243 349 
243 351 
243 355 
243 431 
243 433 
243 446 
243 453 
243 465 
243 490 
243 492 
243 498 
243 510 
244 309 
244 311 
244 315 
244 319 
244 337 
244 346 
244 362 
244 377 
244 380 
244 395 
244 416 
244 419 
244 426 
244 459 
244 496 
244 509 
245 257 
245 277 
245 278 
245 353 
245 366 
245 367 
245 381 
245 409 
245 410 
245 435 
245 440 
245 461 
245 463 
245 473 
245 478 
245 506 
246 315 
246 325 
246 338 
246 362 
246 364 
246 377 
246 380 
246 387 
246 395 
246 406 
246 411 
246 416 
246 426 
246 459 
246 460 
246 468 
247 314 
247 319 
247 325 
247 338 
247 369 
247 377 
247 387 
247 394 
247 395 
247 411 
247 416 
247 426 
247 459 
247 460 
247 468 
247 509 
248 284 
248 339 
248 341 
248 359 
248 372 
248 373 
248 384 
248 389 
248 408 
248 418 
248 442 
248 456 
248 464 
248 482 
248 493 
248 495 
249 287 
249 306 
249 324 
249 342 
249 345 
249 347 
249 398 
249 417 
249 429 
249 432 
249 434 
249 444 
249 450 
249 451 
249 481 
249 483 
250 262 
250 275 
250 280 
250 281 
250 292 
250 293 
250 304 
250 313 
250 316 
250 333 
250 352 
250 400 
250 412 
250 415 
250 423 
250 425 
251 272 
251 282 
251 290 
251 299 
251 303 
251 334 
251 361 
251 370 
251 371 
251 376 
251 378 
251 379 
251 424 
251 445 
251 472 
251 484 
252 268 
252 279 
252 283 
252 287 
252 326 
252 345 
252 357 
252 392 
252 417 
252 432 
252 443 
252 451 
252 462 
252 466 
252 504 
252 507 
253 284 
253 294 
253 322 
253 355 
253 359 
253 408 
253 418 
253 431 
253 433 
253 456 
253 464 
253 465 
253 482 
253 490 
253 493 
253 510 
254 309 
254 315 
254 317 
254 319 
254 362 
254 380 
254 387 
254 411 
254 416 
254 426 
254 459 
254 460 
254 468 
254 496 
254 509 
254 512 
255 267 
255 268 
255 279 
255 283 
255 321 
255 326 
255 345 
255 357 
255 375 
255 392 
255 398 
255 399 
255 429 
255 444 
255 462 
255 504 
256 267 
256 268 
256 287 
256 300 
256 306 
256 324 
256 347 
256 392 
256 432 
256 444 
256 451 
256 462 
256 466 
256 483 
256 504 
256 507 
